
Gurobi 11.0.2 (win64) logging started Mon Jan 20 14:43:44 2025

Set parameter LogFile to value "log_STTP1_targetS1_E3_Gurobi.log"
Set parameter Method to value 0

Gurobi 11.0.2 (win64) logging started Mon Jan 20 14:43:52 2025

Set parameter LogFile to value "log_STTP1_targetS1_E3_Gurobi.log"
Gurobi Optimizer version 11.0.2 build v11.0.2rc0 (win64 - Windows 11.0 (22621.2))

CPU model: 12th Gen Intel(R) Core(TM) i7-12700, instruction set [SSE2|AVX|AVX2]
Thread count: 12 physical cores, 20 logical processors, using up to 20 threads

Optimize a model with 2506792 rows, 3590 columns and 5014472 nonzeros
Model fingerprint: 0x319264a6
Variable types: 0 continuous, 3590 integer (3590 binary)
Coefficient statistics:
  Matrix range     [1e+00, 3e+00]
  Objective range  [1e+00, 1e+00]
  Bounds range     [0e+00, 0e+00]
  RHS range        [1e+00, 2e+00]
Found heuristic solution: objective -0.0000000
Presolve removed 2506047 rows and 2963 columns
Presolve time: 0.53s
Presolved: 745 rows, 627 columns, 1807 nonzeros
Found heuristic solution: objective 9.0000000
Variable types: 0 continuous, 627 integer (627 binary)
Found heuristic solution: objective 62.0000000

Root relaxation: objective 7.191667e+01, 87 iterations, 0.00 seconds (0.00 work units)

    Nodes    |    Current Node    |     Objective Bounds      |     Work
 Expl Unexpl |  Obj  Depth IntInf | Incumbent    BestBd   Gap | It/Node Time

     0     0   71.91667    0   26   62.00000   71.91667  16.0%     -    0s
H    0     0                      66.0000000   71.91667  8.96%     -    0s
H    0     0                      67.0000000   71.83333  7.21%     -    0s
     0     0   70.62500    0   37   67.00000   70.62500  5.41%     -    0s
H    0     0                      68.0000000   70.62500  3.86%     -    0s
H    0     0                      69.0000000   70.62500  2.36%     -    0s
     0     0 infeasible    0        69.00000   69.00000  0.00%     -    0s

Cutting planes:
  Gomory: 7
  Cover: 4
  Clique: 3
  MIR: 4
  GUB cover: 3
  RLT: 1

Explored 1 nodes (135 simplex iterations) in 0.96 seconds (0.95 work units)
Thread count was 20 (of 20 available processors)

Solution count 8: 69 68 67 ... -0

Optimal solution found (tolerance 1.00e-04)
Best objective 6.900000000000e+01, best bound 6.900000000000e+01, gap 0.0000%

User-callback calls 425, time in user-callback 0.00 sec
